set plants := seattle san-diego;
set markets := new-york chicago topeka;

param capacity_plant :=
seattle 350
san-diego 600;

param demand_market :=
new-york 325
chicago 300
topeka 275;

param distance_in_thousand_miles : new-york chicago topeka :=
            seattle                 2.5	      1.7      1.8
            san-diego               2.5       1.8      1.4;
